############################## T =  6
Academic license - for non-commercial use only
Changed value of parameter lazyConstraints to 1
   Prev: 0  Min: 0  Max: 1  Default: 0
Optimize a model with 2875 rows, 96 columns and 10498 nonzeros
Model has 450 quadratic objective terms
Variable types: 0 continuous, 96 integer (96 binary)
Coefficient statistics:
  Matrix range     [1e+00, 1e+00]
  Objective range  [0e+00, 0e+00]
  QObjective range [2e+01, 2e+04]
  Bounds range     [1e+00, 1e+00]
  RHS range        [1e+00, 2e+00]
Found heuristic solution: objective 26296.000000
Presolve removed 239 rows and 12 columns
Presolve time: 0.01s
Presolved: 3086 rows, 534 columns, 10408 nonzeros
Variable types: 0 continuous, 534 integer (534 binary)

Root relaxation: objective 0.000000e+00, 27 iterations, 0.00 seconds

    Nodes    |    Current Node    |     Objective Bounds      |     Work
 Expl Unexpl |  Obj  Depth IntInf | Incumbent    BestBd   Gap | It/Node Time

     0     0    0.00000    0   12 26296.0000    0.00000   100%     -    0s
     0     0    0.00000    0   12 26296.0000    0.00000   100%     -    0s
     0     0    0.00000    0   12 26296.0000    0.00000   100%     -    0s
H    0     0                    24867.000000    0.00000   100%     -    0s
     0     0    0.00000    0   12 24867.0000    0.00000   100%     -    0s
     0     0    0.00000    0   12 24867.0000    0.00000   100%     -    0s
     0     0    0.00000    0   12 24867.0000    0.00000   100%     -    0s
     0     0    0.00000    0   12 24867.0000    0.00000   100%     -    0s
     0     2    0.00000    0   12 24867.0000    0.00000   100%     -    0s
H   60    46                    24844.000000    0.00000   100%  11.1    0s
*  328   201              28    24681.000000    0.00000   100%   8.4    0s
*  368   209              27    24159.000000    0.00000   100%   7.7    0s
H  631   324                    20838.000000 1786.25000  91.4%   7.4    1s
H 1225   480                    20810.000000 2366.00000  88.6%  11.0    2s
* 1406   465              34    20236.000000 2532.00000  87.5%  10.7    3s
* 2320   613              35    20073.000000 4125.00000  79.5%  10.3    3s
* 2982   745              38    19749.000000 5060.00000  74.4%  10.1    4s
  4294   855 infeasible   32      19749.0000 6557.00000  66.8%   9.7    5s
 12781   333 15101.5000   23   19 19749.0000 14834.0000  24.9%   9.3   10s

Cutting planes:
  Gomory: 1
  Flow cover: 3
  Inf proof: 1
  Zero half: 10

Explored 13865 nodes (127637 simplex iterations) in 10.72 seconds
Thread count was 4 (of 4 available processors)

Solution count 10: 19749 20073 20236 ... 26296

Optimal solution found (tolerance 1.00e-04)
Best objective 1.974900000000e+04, best bound 1.974900000000e+04, gap 0.0000%

Optimal cost: 19749
print out solution in ascending timestep
timestep  0 :  27958
timestep  1 :  91600
timestep  2 :  92226
timestep  3 :  125929
timestep  4 :  92494
timestep  5 :  87647
{(0, 0): 0.0, (0, 1): 0.0, (0, 2): 0.0, (0, 3): 0.0, (0, 4): 0.0, (0, 5): 1.0, (1, 0): 0.0, (1, 1): -0.0, (1, 2): 0.0, (1, 3): 0.0, (1, 4): -0.0, (1, 5): 1.0, (2, 0): 0.0, (2, 1): -0.0, (2, 2): 0.0, (2, 3): -0.0, (2, 4): 1.0, (2, 5): 1.0, (3, 0): 0.0, (3, 1): 1.0, (3, 2): 1.0, (3, 3): 1.0, (3, 4): 1.0, (3, 5): 1.0, (4, 0): 0.0, (4, 1): -0.0, (4, 2): -0.0, (4, 3): 1.0, (4, 4): 1.0, (4, 5): 1.0, (5, 0): 0.0, (5, 1): -0.0, (5, 2): 1.0, (5, 3): 1.0, (5, 4): 1.0, (5, 5): 1.0}
SOLVED AT T =  6
